language Essence 1.3

letting class be
        function(1 --> 1, 2 --> 1, 3 --> 1, 4 --> 1, 5 --> 1, 6 --> 1, 7 --> 1, 8 --> 1, 9 --> 1, 10 --> 1, 11 --> 1,
                 12 --> 1, 13 --> 1, 14 --> 1, 15 --> 1, 16 --> 1, 17 --> 1, 18 --> 1, 19 --> 1, 20 --> 1, 21 --> 1,
                 22 --> 1, 23 --> 1, 24 --> 1, 25 --> 1, 26 --> 1, 27 --> 1, 28 --> 1, 29 --> 1, 30 --> 1, 31 --> 1,
                 32 --> 1, 33 --> 1, 34 --> 1, 35 --> 1, 36 --> 1, 37 --> 1, 38 --> 1, 39 --> 1, 40 --> 1, 41 --> 1,
                 42 --> 1, 43 --> 1, 44 --> 1, 45 --> 1, 46 --> 1, 47 --> 1, 48 --> 1, 49 --> 1, 50 --> 1, 51 --> 1)
letting deck_length be 182
letting deck_width be 36
letting length be
        function(1 --> 1, 2 --> 1, 3 --> 1, 4 --> 1, 5 --> 1, 6 --> 1, 7 --> 1, 8 --> 1, 9 --> 1, 10 --> 1, 11 --> 2,
                 12 --> 1, 13 --> 1, 14 --> 1, 15 --> 1, 16 --> 1, 17 --> 1, 18 --> 1, 19 --> 1, 20 --> 1, 21 --> 1,
                 22 --> 1, 23 --> 1, 24 --> 1, 25 --> 1, 26 --> 1, 27 --> 1, 28 --> 1, 29 --> 1, 30 --> 1, 31 --> 1,
                 32 --> 53, 33 --> 1, 34 --> 1, 35 --> 1, 36 --> 1, 37 --> 1, 38 --> 1, 39 --> 1, 40 --> 1, 41 --> 1,
                 42 --> 1, 43 --> 6, 44 --> 1, 45 --> 1, 46 --> 1, 47 --> 1, 48 --> 1, 49 --> 1, 50 --> 1, 51 --> 3)
letting n_classes be 1
letting n_containers be 51
letting separation be function()
letting width be
        function(1 --> 14, 2 --> 34, 3 --> 18, 4 --> 31, 5 --> 16, 6 --> 26, 7 --> 28, 8 --> 13, 9 --> 19, 10 --> 28,
                 11 --> 18, 12 --> 24, 13 --> 23, 14 --> 10, 15 --> 26, 16 --> 16, 17 --> 12, 18 --> 30, 19 --> 34,
                 20 --> 1, 21 --> 21, 22 --> 7, 23 --> 1, 24 --> 25, 25 --> 25, 26 --> 15, 27 --> 28, 28 --> 19,
                 29 --> 9, 30 --> 10, 31 --> 19, 32 --> 36, 33 --> 35, 34 --> 28, 35 --> 25, 36 --> 20, 37 --> 3,
                 38 --> 9, 39 --> 7, 40 --> 10, 41 --> 2, 42 --> 18, 43 --> 31, 44 --> 31, 45 --> 26, 46 --> 10,
                 47 --> 12, 48 --> 7, 49 --> 13, 50 --> 35, 51 --> 3)
